sat
(model 
  (define-fun var22 () Bool
    true)
  (define-fun var34 () Bool
    true)
  (define-fun var3 () Bool
    true)
  (define-fun var11 () Bool
    true)
  (define-fun var30 () Bool
    true)
  (define-fun var35 () Bool
    true)
  (define-fun var38 () Bool
    true)
  (define-fun var47 () Bool
    true)
  (define-fun var19 () Bool
    true)
  (define-fun var10 () Bool
    true)
  (define-fun var9 () Bool
    true)
  (define-fun var28 () Bool
    false)
  (define-fun var45 () Bool
    true)
  (define-fun var26 () Bool
    true)
  (define-fun var12 () Bool
    true)
  (define-fun var25 () Bool
    true)
  (define-fun var27 () Bool
    true)
  (define-fun var8 () Bool
    true)
  (define-fun var20 () Bool
    true)
  (define-fun var36 () Bool
    true)
  (define-fun var15 () Bool
    true)
  (define-fun var41 () Bool
    false)
  (define-fun var39 () Bool
    true)
  (define-fun var17 () Bool
    true)
  (define-fun var42 () Bool
    true)
  (define-fun var44 () Bool
    false)
  (define-fun var1 () Bool
    true)
  (define-fun var31 () Bool
    false)
  (define-fun var6 () Bool
    true)
  (define-fun var16 () Bool
    true)
  (define-fun var50 () Bool
    false)
  (define-fun var7 () Bool
    false)
  (define-fun var46 () Bool
    true)
  (define-fun var49 () Bool
    false)
  (define-fun var24 () Bool
    false)
  (define-fun var40 () Bool
    false)
  (define-fun var33 () Bool
    true)
  (define-fun var32 () Bool
    true)
  (define-fun var43 () Bool
    true)
  (define-fun var4 () Bool
    false)
  (define-fun var5 () Bool
    true)
  (define-fun var13 () Bool
    false)
  (define-fun var48 () Bool
    true)
  (define-fun var14 () Bool
    false)
  (define-fun var23 () Bool
    true)
  (define-fun var29 () Bool
    false)
  (define-fun var21 () Bool
    false)
  (define-fun var18 () Bool
    false)
  (define-fun var2 () Bool
    true)
  (define-fun var37 () Bool
    true)
)